db/data/114421940992734273190235012866929074.z3.out
-------------------
2500.139026930
